true true true
presolving:
presolving (0 rounds: 0 fast, 0 medium, 0 exhaustive):
 0 deleted vars, 0 deleted constraints, 0 added constraints, 0 tightened bounds, 0 added holes, 0 changed sides, 0 changed coefficients
 0 implications, 0 cliques
presolved problem has 86 variables (86 bin, 0 int, 0 impl, 0 cont) and 76 constraints
     76 constraints of type <linear>
transformed objective value is always integral (scale: 1)
Presolving Time: 0.00

 time | node  | left  |LP iter|LP it/n|mem/heur|mdpt |vars |cons |rows |cuts |sepa|confs|strbr|  dualbound   | primalbound  |  gap   | compl. 
p 0.0s|     1 |     0 |     0 |     - |shiftand|   0 |  86 |  76 |  76 |   0 |  0 |   0 |   0 |      --      | 1.000000e+01 |    Inf | unknown
 time | node  | left  |LP iter|LP it/n|mem/heur|mdpt |vars |cons |rows |cuts |sepa|confs|strbr|  dualbound   | primalbound  |  gap   | compl. 
  0.2s|     1 |     0 |    40 |     - |  6023k |   0 |1631 |  76 |  76 |   0 |  0 |   0 |   0 | 1.000000e+00 | 1.000000e+01 | 900.00%| unknown
 time | node  | left  |LP iter|LP it/n|mem/heur|mdpt |vars |cons |rows |cuts |sepa|confs|strbr|  dualbound   | primalbound  |  gap   | compl. 
 1823s|     1 |     0 |  1878 |     - |    22M |   0 |6869 |  76 |  76 |   0 |  0 |   0 |   0 | 8.000000e+00 | 1.000000e+01 |  25.00%| unknown
 time | node  | left  |LP iter|LP it/n|mem/heur|mdpt |vars |cons |rows |cuts |sepa|confs|strbr|  dualbound   | primalbound  |  gap   | compl. 
 1824s|     1 |     2 |  4338 |     - |    23M |   0 |6869 |  76 |  76 |   0 |  1 |   0 |   0 | 8.000000e+00 | 1.000000e+01 |  25.00%| unknown
 time | node  | left  |LP iter|LP it/n|mem/heur|mdpt |vars |cons |rows |cuts |sepa|confs|strbr|  dualbound   | primalbound  |  gap   | compl. 
 3068s|     2 |     3 |  4425 |  87.0 |    24M |   1 |6876 |  76 |  76 |   0 |  1 |   0 |   0 | 8.000000e+00 | 1.000000e+01 |  25.00%| unknown
 time | node  | left  |LP iter|LP it/n|mem/heur|mdpt |vars |cons |rows |cuts |sepa|confs|strbr|  dualbound   | primalbound  |  gap   | compl. 
 3421s|     3 |     4 |  4434 |  48.0 |    24M |   2 |6876 |  76 |  76 |   0 |  1 |   0 |   0 | 8.000000e+00 | 1.000000e+01 |  25.00%| unknown
 time | node  | left  |LP iter|LP it/n|mem/heur|mdpt |vars |cons |rows |cuts |sepa|confs|strbr|  dualbound   | primalbound  |  gap   | compl. 
 4239s|     4 |     5 |  7147 | 936.3 |    30M |   2 |8079 |  76 |  76 |   0 |  1 |   0 |   0 | 8.000000e+00 | 1.000000e+01 |  25.00%| unknown
 time | node  | left  |LP iter|LP it/n|mem/heur|mdpt |vars |cons |rows |cuts |sepa|confs|strbr|  dualbound   | primalbound  |  gap   | compl. 
 4584s|     5 |     6 |  7202 | 716.0 |    32M |   3 |8098 |  76 |  76 |   0 |  1 |   0 |   0 | 8.000000e+00 | 1.000000e+01 |  25.00%| unknown
 time | node  | left  |LP iter|LP it/n|mem/heur|mdpt |vars |cons |rows |cuts |sepa|confs|strbr|  dualbound   | primalbound  |  gap   | compl. 
 5069s|     6 |     7 |  7515 | 635.4 |    32M |   4 |8194 |  76 |  76 |   0 |  1 |   0 |   0 | 8.000000e+00 | 1.000000e+01 |  25.00%| unknown
 time | node  | left  |LP iter|LP it/n|mem/heur|mdpt |vars |cons |rows |cuts |sepa|confs|strbr|  dualbound   | primalbound  |  gap   | compl. 
 5385s|     7 |     8 |  7577 | 539.8 |    32M |   5 |8200 |  76 |  76 |   0 |  1 |   0 |   0 | 8.000000e+00 | 1.000000e+01 |  25.00%| unknown
 time | node  | left  |LP iter|LP it/n|mem/heur|mdpt |vars |cons |rows |cuts |sepa|confs|strbr|  dualbound   | primalbound  |  gap   | compl. 
 5846s|     8 |     9 |  7790 | 493.1 |    32M |   6 |8246 |  76 |  76 |   0 |  1 |   0 |   0 | 8.000000e+00 | 1.000000e+01 |  25.00%| unknown
 time | node  | left  |LP iter|LP it/n|mem/heur|mdpt |vars |cons |rows |cuts |sepa|confs|strbr|  dualbound   | primalbound  |  gap   | compl. 
 6169s|     9 |    10 |  7809 | 433.9 |    32M |   7 |8248 |  76 |  76 |   0 |  1 |   0 |   0 | 8.000000e+00 | 1.000000e+01 |  25.00%| unknown
 time | node  | left  |LP iter|LP it/n|mem/heur|mdpt |vars |cons |rows |cuts |sepa|confs|strbr|  dualbound   | primalbound  |  gap   | compl. 
 6306s|    10 |    11 |  7833 | 388.3 |    32M |   8 |8248 |  76 |  76 |   0 |  1 |   0 |   0 | 8.000000e+00 | 1.000000e+01 |  25.00%| unknown
 time | node  | left  |LP iter|LP it/n|mem/heur|mdpt |vars |cons |rows |cuts |sepa|confs|strbr|  dualbound   | primalbound  |  gap   | compl. 
 6905s|    11 |    12 |  8221 | 388.3 |    33M |   9 |8472 |  76 |  76 |   0 |  1 |   0 |   0 | 8.000000e+00 | 1.000000e+01 |  25.00%| unknown

SCIP Status        : solving was interrupted [time limit reached]
Solving Time (sec) : 7214.68
Solving Nodes      : 12
Primal Bound       : +1.00000000000000e+01 (1 solutions)
Dual Bound         : +8.00000000000000e+00
Gap                : 25.00 %
Running with parallel: True bidir: True symbreak: True
Number of Nodes:  76
49.241188584341735% holds
starting cheapest insertion heuristic
Heuristic without TSP improvement:  12
Heuristic without TSP improvement time:  0.1
Heuristic Sol:  10
Heuristic total time:  0.4
[[13, 16, 50, 65, 1, 19, 43, 53], [28, 4, 18, 12, 56, 54, 3], [27, 14, 2, 51, 32, 0, 73, 61], [30, 31, 59, 72, 10, 33, 35, 47], [62, 75, 20, 49, 29, 37], [42, 15, 39, 7, 74, 34, 8], [66, 58, 36, 9, 26, 21, 63, 64, 46, 24], [69, 38, 22, 57, 23, 40, 11, 48, 25, 5], [70, 52, 55, 44, 60, 41, 6], [71, 68, 45, 67, 17]]
Instance path:  /home/htc/mghannam/SCRATCH/lccp-rust/data/t84_eil76.npcc
Timelimit:  7200
Heuristic without TSP improvement:  12
Heuristic without TSP improvement time:  0.1
Heuristic Sol:  10
Heuristic total time:  1.1
at 1 zero_duals: 66
at1, LP obj: 10.0 n_added_paths: 1545
at 1 zero_duals: 46
at1, LP obj: 10.0 n_added_paths: 622
at 1 zero_duals: 28
at1, LP obj: 10.0 n_added_paths: 869
at 1 zero_duals: 17
at1, LP obj: 10.0 n_added_paths: 1149
at 1 zero_duals: 16
at1, LP obj: 9.184320418424 n_added_paths: 999
at 1 zero_duals: 1
at1, LP obj: 8.759817888913947 n_added_paths: 714
at 1 zero_duals: 2
at1, LP obj: 8.41453297555213 n_added_paths: 458
at 1 zero_duals: 1
at1, LP obj: 8.142368631246246 n_added_paths: 126
at1, LP obj: 8.018902914849667 n_added_paths: 70
at1, LP obj: 7.986318645640979 n_added_paths: 47
Switching to elementary pricing
at1, LP obj: 7.948802683994346 n_added_paths: 136
updated lowerbound from 1.0 to 8
Switching to elementary pricing
at1, LP obj: 7.867631911312295 n_added_paths: 45
Switching to elementary pricing
at1, LP obj: 7.858229233995964 n_added_paths: 3
Switching to elementary pricing
at1, LP obj: 7.857946280694175 n_added_paths: 0
Switching to elementary pricing
at2, LP obj: 7.8698413638562315 n_added_paths: 5
Switching to elementary pricing
at2, LP obj: 7.868377941979513 n_added_paths: 2
Switching to elementary pricing
at2, LP obj: 7.868198546324408 n_added_paths: 0
Switching to elementary pricing
at4, LP obj: 7.868594200525769 n_added_paths: 0
at 5 zero_duals: 4
at5, LP obj: 8.250479267040138 n_added_paths: 852
at 5 zero_duals: 1
at5, LP obj: 7.9961088805956955 n_added_paths: 178
at 5 zero_duals: 1
Switching to elementary pricing
at5, LP obj: 7.967638750576391 n_added_paths: 142
at 5 zero_duals: 1
Switching to elementary pricing
at5, LP obj: 7.905598808142249 n_added_paths: 24
at 5 zero_duals: 1
Switching to elementary pricing
at5, LP obj: 7.904554532239398 n_added_paths: 6
at 5 zero_duals: 1
Switching to elementary pricing
at5, LP obj: 7.904419130702138 n_added_paths: 1
at 5 zero_duals: 1
Switching to elementary pricing
at5, LP obj: 7.9044183987110275 n_added_paths: 0
Switching to elementary pricing
at7, LP obj: 7.873472222665889 n_added_paths: 19
Switching to elementary pricing
at7, LP obj: 7.872901131886933 n_added_paths: 0
at10, LP obj: 7.963369737356286 n_added_paths: 47
Switching to elementary pricing
at10, LP obj: 7.932552076974249 n_added_paths: 41
Switching to elementary pricing
at10, LP obj: 7.910861384805727 n_added_paths: 8
Switching to elementary pricing
at10, LP obj: 7.910722509764573 n_added_paths: 0
Switching to elementary pricing
at12, LP obj: 7.916107163118186 n_added_paths: 6
Switching to elementary pricing
at12, LP obj: 7.915751422650349 n_added_paths: 0
Switching to elementary pricing
at14, LP obj: 7.948482791630817 n_added_paths: 41
Switching to elementary pricing
at14, LP obj: 7.937612036232488 n_added_paths: 5
Switching to elementary pricing
at14, LP obj: 7.937612036232488 n_added_paths: 0
Switching to elementary pricing
at16, LP obj: 7.938798645591056 n_added_paths: 2
Switching to elementary pricing
at16, LP obj: 7.938785912986749 n_added_paths: 0
Switching to elementary pricing
at18, LP obj: 7.939329749436676 n_added_paths: 0
at 20 zero_duals: 1
at20, LP obj: 8.013307943721989 n_added_paths: 194
Switching to elementary pricing
at20, LP obj: 7.972791020934384 n_added_paths: 24
Switching to elementary pricing
at20, LP obj: 7.960150009683724 n_added_paths: 3
Switching to elementary pricing
at20, LP obj: 7.959947148359739 n_added_paths: 3
Switching to elementary pricing
at20, LP obj: 7.9599381782037275 n_added_paths: 0
Switching to elementary pricing
at22, LP obj: 7.979584821350569 n_added_paths: 97
at 22 zero_duals: 1
Switching to elementary pricing
at22, LP obj: 7.966321243523316 n_added_paths: 7
Switching to elementary pricing
at22, LP obj: 7.96602570973297 n_added_paths: 0
Best solution found:
t_[13, 16, 50, 65, 1, 19, 43, 53, 13] 1.0 1.0
checking cycle [13, 16, 50, 65, 1, 19, 43, 53, 13]
[13, 16, 50, 65, 1, 19, 43, 53, 13] 75 71
t_[28, 4, 18, 3, 12, 56, 54, 8, 28] 1.0 1.0
checking cycle [28, 4, 18, 3, 12, 56, 54, 8, 28]
[28, 4, 18, 3, 12, 56, 54, 8, 28] 82 82
t_[27, 14, 2, 51, 32, 0, 73, 61, 27] 1.0 1.0
checking cycle [27, 14, 2, 51, 32, 0, 73, 61, 27]
[27, 14, 2, 51, 32, 0, 73, 61, 27] 69 64
t_[30, 31, 59, 72, 10, 33, 35, 47, 30] 1.0 1.0
checking cycle [30, 31, 59, 72, 10, 33, 35, 47, 30]
[30, 31, 59, 72, 10, 33, 35, 47, 30] 69 64
t_[62, 75, 20, 49, 29, 37, 62] 1.0 1.0
checking cycle [62, 75, 20, 49, 29, 37, 62]
[62, 75, 20, 49, 29, 37, 62] 67 64
t_[42, 64, 39, 15, 7, 74, 34, 42] 1.0 1.0
checking cycle [42, 64, 39, 15, 7, 74, 34, 42]
[42, 64, 39, 15, 7, 74, 34, 42] 68 64
t_[66, 58, 36, 9, 26, 67, 21, 63, 46, 24, 66] 1.0 1.0
checking cycle [66, 58, 36, 9, 26, 67, 21, 63, 46, 24, 66]
[66, 58, 36, 9, 26, 67, 21, 63, 46, 24, 66] 74 68
t_[38, 69, 5, 25, 48, 57, 11, 40, 23, 22, 38] 1.0 1.0
checking cycle [38, 69, 5, 25, 48, 57, 11, 40, 23, 22, 38]
[38, 69, 5, 25, 48, 57, 11, 40, 23, 22, 38] 73 66
t_[70, 60, 44, 45, 71, 55, 52, 70] 1.0 1.0
checking cycle [70, 60, 44, 45, 71, 55, 52, 70]
[70, 60, 44, 45, 71, 55, 52, 70] 70 64
t_[68, 17, 6, 41, 68] 1.0 1.0
checking cycle [68, 17, 6, 41, 68]
[68, 17, 6, 41, 68] 74 61
